p edge 250 3075
e 1 6
e 1 18
e 1 20
e 1 43
e 1 44
e 1 59
e 1 62
e 1 66
e 1 72
e 1 75
e 1 93
e 1 95
e 1 103
e 1 118
e 1 139
e 1 151
e 1 154
e 1 225
e 1 228
e 1 244
e 1 246
e 2 7
e 2 14
e 2 30
e 2 36
e 2 40
e 2 58
e 2 59
e 2 91
e 2 110
e 2 137
e 2 139
e 2 145
e 2 147
e 2 157
e 2 163
e 2 164
e 2 166
e 2 181
e 2 184
e 2 197
e 2 198
e 2 223
e 2 224
e 2 233
e 2 237
e 2 240
e 3 4
e 3 8
e 3 9
e 3 19
e 3 64
e 3 73
e 3 74
e 3 80
e 3 88
e 3 98
e 3 99
e 3 111
e 3 114
e 3 131
e 3 143
e 3 162
e 3 179
e 3 182
e 3 183
e 3 185
e 3 203
e 3 204
e 3 205
e 3 213
e 3 227
e 3 231
e 3 240
e 3 244
e 4 11
e 4 32
e 4 60
e 4 68
e 4 76
e 4 104
e 4 108
e 4 109
e 4 123
e 4 156
e 4 163
e 4 165
e 4 174
e 4 184
e 4 188
e 4 189
e 4 199
e 4 201
e 4 204
e 4 220
e 4 228
e 4 235
e 4 236
e 4 239
e 4 242
e 5 21
e 5 22
e 5 38
e 5 40
e 5 66
e 5 69
e 5 72
e 5 89
e 5 91
e 5 93
e 5 96
e 5 101
e 5 116
e 5 117
e 5 118
e 5 120
e 5 127
e 5 145
e 5 157
e 5 186
e 5 223
e 5 224
e 5 244
e 5 247
e 6 12
e 6 18
e 6 24
e 6 28
e 6 31
e 6 42
e 6 43
e 6 69
e 6 78
e 6 94
e 6 97
e 6 106
e 6 112
e 6 139
e 6 147
e 6 181
e 6 197
e 6 241
e 6 244
e 6 247
e 6 250
e 7 24
e 7 26
e 7 35
e 7 54
e 7 62
e 7 69
e 7 97
e 7 104
e 7 106
e 7 116
e 7 118
e 7 152
e 7 167
e 7 173
e 7 183
e 7 192
e 7 193
e 7 201
e 7 210
e 7 216
e 7 234
e 7 248
e 8 10
e 8 21
e 8 33
e 8 40
e 8 47
e 8 50
e 8 56
e 8 59
e 8 66
e 8 67
e 8 74
e 8 102
e 8 113
e 8 127
e 8 131
e 8 184
e 8 187
e 8 193
e 8 200
e 8 211
e 8 216
e 8 217
e 8 236
e 8 242
e 8 250
e 9 20
e 9 25
e 9 35
e 9 36
e 9 56
e 9 94
e 9 98
e 9 99
e 9 102
e 9 104
e 9 116
e 9 125
e 9 127
e 9 135
e 9 143
e 9 145
e 9 150
e 9 152
e 9 156
e 9 164
e 9 169
e 9 171
e 9 172
e 9 185
e 9 186
e 9 208
e 9 231
e 9 232
e 10 17
e 10 32
e 10 40
e 10 88
e 10 96
e 10 104
e 10 109
e 10 119
e 10 126
e 10 131
e 10 148
e 10 152
e 10 157
e 10 160
e 10 173
e 10 174
e 10 181
e 10 196
e 10 197
e 10 207
e 10 208
e 11 15
e 11 26
e 11 37
e 11 51
e 11 53
e 11 57
e 11 61
e 11 65
e 11 66
e 11 67
e 11 68
e 11 74
e 11 90
e 11 96
e 11 97
e 11 115
e 11 137
e 11 149
e 11 152
e 11 156
e 11 165
e 11 168
e 11 169
e 11 183
e 11 216
e 11 229
e 11 230
e 11 238
e 11 246
e 12 13
e 12 23
e 12 26
e 12 30
e 12 48
e 12 67
e 12 69
e 12 74
e 12 79
e 12 94
e 12 107
e 12 109
e 12 117
e 12 118
e 12 120
e 12 125
e 12 144
e 12 146
e 12 179
e 12 187
e 12 211
e 12 220
e 12 227
e 12 230
e 13 16
e 13 17
e 13 43
e 13 49
e 13 51
e 13 54
e 13 55
e 13 62
e 13 70
e 13 77
e 13 83
e 13 92
e 13 100
e 13 107
e 13 111
e 13 113
e 13 115
e 13 119
e 13 151
e 13 153
e 13 155
e 13 160
e 13 161
e 13 164
e 13 167
e 13 168
e 13 169
e 13 177
e 13 178
e 13 190
e 13 194
e 13 196
e 13 203
e 13 215
e 13 226
e 13 232
e 14 21
e 14 23
e 14 28
e 14 40
e 14 44
e 14 45
e 14 50
e 14 62
e 14 78
e 14 126
e 14 142
e 14 152
e 14 154
e 14 162
e 14 167
e 14 171
e 14 173
e 14 185
e 14 192
e 14 216
e 14 219
e 14 221
e 14 226
e 14 237
e 14 250
e 15 24
e 15 36
e 15 41
e 15 42
e 15 59
e 15 60
e 15 68
e 15 71
e 15 74
e 15 83
e 15 101
e 15 118
e 15 126
e 15 129
e 15 132
e 15 137
e 15 149
e 15 165
e 15 170
e 15 183
e 15 184
e 15 205
e 15 207
e 15 214
e 15 215
e 15 218
e 15 227
e 15 231
e 15 247
e 16 26
e 16 34
e 16 36
e 16 73
e 16 88
e 16 102
e 16 136
e 16 139
e 16 160
e 16 166
e 16 189
e 16 190
e 16 191
e 16 195
e 16 197
e 16 211
e 16 220
e 16 249
e 17 56
e 17 62
e 17 67
e 17 102
e 17 116
e 17 119
e 17 121
e 17 123
e 17 135
e 17 153
e 17 159
e 17 191
e 17 200
e 17 207
e 17 209
e 17 210
e 17 212
e 17 239
e 17 241
e 17 248
e 18 27
e 18 44
e 18 57
e 18 67
e 18 71
e 18 76
e 18 88
e 18 94
e 18 96
e 18 113
e 18 121
e 18 130
e 18 132
e 18 136
e 18 138
e 18 155
e 18 158
e 18 163
e 18 180
e 18 190
e 18 194
e 18 199
e 18 224
e 18 244
e 18 248
e 19 30
e 19 40
e 19 82
e 19 83
e 19 94
e 19 104
e 19 106
e 19 108
e 19 128
e 19 133
e 19 135
e 19 137
e 19 141
e 19 152
e 19 155
e 19 166
e 19 180
e 19 200
e 19 204
e 19 206
e 19 208
e 19 211
e 19 230
e 19 235
e 19 237
e 19 243
e 20 27
e 20 78
e 20 80
e 20 108
e 20 110
e 20 115
e 20 116
e 20 129
e 20 153
e 20 172
e 20 176
e 20 187
e 20 190
e 20 191
e 20 198
e 20 211
e 20 215
e 20 218
e 20 225
e 20 228
e 20 231
e 20 243
e 20 250
e 21 24
e 21 32
e 21 43
e 21 62
e 21 67
e 21 85
e 21 100
e 21 107
e 21 113
e 21 114
e 21 126
e 21 132
e 21 143
e 21 153
e 21 160
e 21 177
e 21 182
e 21 185
e 21 199
e 21 238
e 21 247
e 22 24
e 22 103
e 22 105
e 22 116
e 22 119
e 22 120
e 22 124
e 22 127
e 22 132
e 22 135
e 22 172
e 22 174
e 22 181
e 22 186
e 22 201
e 22 203
e 22 233
e 22 234
e 22 250
e 23 34
e 23 46
e 23 47
e 23 57
e 23 64
e 23 73
e 23 92
e 23 93
e 23 100
e 23 117
e 23 123
e 23 145
e 23 163
e 23 164
e 23 167
e 23 171
e 23 176
e 23 180
e 23 184
e 23 187
e 23 193
e 23 234
e 23 240
e 24 30
e 24 50
e 24 59
e 24 64
e 24 74
e 24 82
e 24 96
e 24 98
e 24 113
e 24 120
e 24 128
e 24 135
e 24 144
e 24 146
e 24 150
e 24 174
e 24 177
e 24 178
e 24 191
e 24 205
e 24 209
e 24 216
e 24 222
e 24 225
e 24 237
e 24 240
e 25 29
e 25 30
e 25 37
e 25 49
e 25 53
e 25 59
e 25 66
e 25 72
e 25 91
e 25 106
e 25 118
e 25 145
e 25 151
e 25 154
e 25 190
e 25 196
e 25 202
e 25 203
e 25 205
e 25 213
e 25 216
e 25 232
e 25 237
e 25 241
e 25 246
e 26 30
e 26 38
e 26 49
e 26 64
e 26 68
e 26 70
e 26 78
e 26 85
e 26 99
e 26 117
e 26 147
e 26 149
e 26 154
e 26 177
e 26 183
e 26 215
e 26 223
e 26 245
e 27 30
e 27 55
e 27 62
e 27 66
e 27 67
e 27 73
e 27 77
e 27 91
e 27 99
e 27 102
e 27 106
e 27 119
e 27 122
e 27 130
e 27 140
e 27 152
e 27 160
e 27 161
e 27 176
e 27 185
e 27 203
e 27 208
e 27 209
e 27 224
e 27 225
e 27 228
e 27 233
e 27 249
e 28 45
e 28 47
e 28 56
e 28 66
e 28 76
e 28 80
e 28 89
e 28 91
e 28 127
e 28 131
e 28 138
e 28 149
e 28 155
e 28 162
e 28 165
e 28 172
e 28 180
e 28 182
e 28 199
e 28 202
e 28 211
e 28 215
e 28 233
e 28 241
e 29 45
e 29 46
e 29 47
e 29 52
e 29 82
e 29 87
e 29 90
e 29 105
e 29 112
e 29 117
e 29 123
e 29 129
e 29 130
e 29 136
e 29 152
e 29 174
e 29 192
e 29 194
e 29 207
e 29 221
e 29 228
e 29 229
e 29 235
e 29 248
e 30 44
e 30 46
e 30 62
e 30 67
e 30 71
e 30 83
e 30 106
e 30 126
e 30 130
e 30 133
e 30 137
e 30 142
e 30 174
e 30 177
e 30 181
e 30 186
e 30 199
e 30 208
e 30 223
e 30 237
e 30 245
e 31 35
e 31 51
e 31 54
e 31 94
e 31 110
e 31 111
e 31 135
e 31 147
e 31 148
e 31 160
e 31 182
e 31 187
e 31 189
e 31 230
e 31 231
e 31 248
e 32 52
e 32 56
e 32 57
e 32 63
e 32 69
e 32 94
e 32 95
e 32 102
e 32 103
e 32 114
e 32 133
e 32 135
e 32 136
e 32 138
e 32 154
e 32 160
e 32 182
e 32 183
e 32 191
e 32 196
e 32 198
e 32 203
e 32 204
e 32 206
e 32 208
e 32 226
e 32 234
e 32 243
e 32 244
e 33 35
e 33 63
e 33 66
e 33 90
e 33 91
e 33 93
e 33 114
e 33 117
e 33 139
e 33 152
e 33 153
e 33 154
e 33 169
e 33 174
e 33 180
e 33 193
e 33 197
e 33 201
e 33 204
e 33 210
e 33 221
e 34 37
e 34 42
e 34 47
e 34 55
e 34 63
e 34 67
e 34 86
e 34 90
e 34 97
e 34 100
e 34 118
e 34 128
e 34 183
e 34 185
e 34 198
e 34 206
e 34 208
e 34 237
e 34 245
e 35 40
e 35 50
e 35 69
e 35 92
e 35 94
e 35 107
e 35 116
e 35 130
e 35 140
e 35 142
e 35 156
e 35 160
e 35 175
e 35 181
e 35 185
e 35 208
e 35 214
e 35 215
e 35 222
e 35 245
e 35 249
e 36 38
e 36 46
e 36 56
e 36 61
e 36 63
e 36 85
e 36 91
e 36 92
e 36 95
e 36 97
e 36 104
e 36 106
e 36 115
e 36 118
e 36 135
e 36 136
e 36 160
e 36 162
e 36 170
e 36 189
e 36 195
e 36 199
e 36 203
e 36 213
e 36 225
e 36 237
e 36 241
e 37 39
e 37 46
e 37 57
e 37 58
e 37 62
e 37 68
e 37 89
e 37 92
e 37 95
e 37 103
e 37 112
e 37 121
e 37 153
e 37 161
e 37 179
e 37 181
e 37 185
e 37 188
e 37 219
e 37 221
e 37 228
e 37 239
e 37 250
e 38 60
e 38 65
e 38 70
e 38 71
e 38 79
e 38 86
e 38 135
e 38 142
e 38 145
e 38 146
e 38 154
e 38 159
e 38 160
e 38 163
e 38 186
e 38 188
e 38 195
e 38 200
e 38 211
e 38 212
e 38 228
e 39 63
e 39 65
e 39 69
e 39 73
e 39 77
e 39 85
e 39 86
e 39 96
e 39 105
e 39 134
e 39 151
e 39 162
e 39 177
e 39 180
e 39 184
e 39 202
e 39 216
e 39 243
e 40 46
e 40 52
e 40 56
e 40 62
e 40 72
e 40 85
e 40 88
e 40 89
e 40 94
e 40 110
e 40 113
e 40 124
e 40 132
e 40 158
e 40 163
e 40 169
e 40 183
e 40 196
e 40 214
e 40 222
e 40 230
e 40 236
e 40 237
e 40 245
e 40 246
e 40 249
e 41 43
e 41 53
e 41 54
e 41 67
e 41 94
e 41 119
e 41 122
e 41 125
e 41 127
e 41 162
e 41 168
e 41 183
e 41 191
e 41 215
e 41 250
e 42 45
e 42 52
e 42 56
e 42 62
e 42 66
e 42 101
e 42 131
e 42 133
e 42 147
e 42 162
e 42 170
e 42 179
e 42 180
e 42 187
e 42 219
e 42 230
e 42 240
e 42 249
e 43 48
e 43 52
e 43 56
e 43 57
e 43 65
e 43 90
e 43 127
e 43 132
e 43 134
e 43 140
e 43 160
e 43 169
e 43 171
e 43 173
e 43 176
e 43 181
e 43 184
e 43 185
e 43 188
e 43 204
e 44 46
e 44 61
e 44 103
e 44 105
e 44 106
e 44 121
e 44 124
e 44 137
e 44 149
e 44 157
e 44 173
e 44 198
e 44 205
e 44 212
e 44 214
e 44 223
e 44 232
e 44 244
e 44 249
e 45 57
e 45 68
e 45 74
e 45 80
e 45 139
e 45 150
e 45 162
e 45 184
e 45 234
e 46 49
e 46 61
e 46 62
e 46 70
e 46 84
e 46 107
e 46 123
e 46 127
e 46 130
e 46 138
e 46 146
e 46 166
e 46 180
e 46 187
e 46 197
e 46 202
e 46 218
e 46 219
e 46 232
e 46 240
e 47 54
e 47 59
e 47 70
e 47 78
e 47 82
e 47 87
e 47 90
e 47 91
e 47 97
e 47 116
e 47 119
e 47 147
e 47 152
e 47 158
e 47 182
e 47 209
e 47 220
e 47 234
e 48 54
e 48 61
e 48 69
e 48 74
e 48 80
e 48 87
e 48 99
e 48 126
e 48 132
e 48 134
e 48 150
e 48 161
e 48 177
e 48 182
e 48 183
e 48 186
e 48 187
e 48 194
e 48 196
e 48 209
e 48 210
e 48 220
e 48 224
e 48 238
e 48 245
e 49 60
e 49 65
e 49 68
e 49 75
e 49 93
e 49 104
e 49 112
e 49 120
e 49 127
e 49 144
e 49 147
e 49 177
e 49 190
e 49 197
e 49 204
e 49 206
e 49 212
e 49 213
e 49 225
e 49 230
e 50 52
e 50 54
e 50 62
e 50 68
e 50 80
e 50 100
e 50 115
e 50 120
e 50 127
e 50 141
e 50 148
e 50 168
e 50 180
e 50 183
e 50 184
e 50 222
e 50 224
e 50 226
e 50 232
e 50 245
e 50 248
e 51 52
e 51 60
e 51 65
e 51 80
e 51 86
e 51 94
e 51 108
e 51 115
e 51 138
e 51 143
e 51 149
e 51 155
e 51 170
e 51 173
e 51 176
e 51 181
e 51 182
e 51 191
e 51 192
e 51 198
e 51 204
e 51 241
e 51 243
e 51 249
e 51 250
e 52 54
e 52 63
e 52 70
e 52 73
e 52 99
e 52 100
e 52 128
e 52 144
e 52 151
e 52 183
e 52 185
e 52 204
e 52 209
e 52 213
e 52 216
e 52 229
e 53 56
e 53 58
e 53 67
e 53 77
e 53 79
e 53 81
e 53 93
e 53 95
e 53 118
e 53 119
e 53 134
e 53 139
e 53 141
e 53 150
e 53 154
e 53 155
e 53 165
e 53 166
e 53 191
e 53 192
e 53 193
e 53 203
e 53 226
e 53 229
e 53 230
e 53 231
e 53 235
e 54 71
e 54 73
e 54 82
e 54 98
e 54 121
e 54 123
e 54 142
e 54 148
e 54 153
e 54 155
e 54 161
e 54 163
e 54 171
e 54 176
e 54 202
e 54 204
e 54 207
e 54 215
e 54 216
e 54 229
e 54 235
e 54 240
e 55 72
e 55 73
e 55 74
e 55 85
e 55 88
e 55 111
e 55 138
e 55 144
e 55 160
e 55 161
e 55 172
e 55 180
e 55 188
e 55 190
e 55 198
e 55 206
e 55 225
e 55 226
e 55 242
e 55 245
e 55 250
e 56 68
e 56 78
e 56 88
e 56 92
e 56 105
e 56 106
e 56 116
e 56 135
e 56 141
e 56 150
e 56 183
e 56 185
e 57 60
e 57 89
e 57 90
e 57 103
e 57 106
e 57 141
e 57 145
e 57 147
e 57 161
e 57 165
e 57 173
e 57 180
e 57 210
e 57 213
e 58 68
e 58 83
e 58 107
e 58 109
e 58 126
e 58 136
e 58 152
e 58 190
e 58 192
e 58 222
e 58 233
e 59 78
e 59 107
e 59 131
e 59 133
e 59 143
e 59 153
e 59 160
e 59 167
e 59 188
e 59 189
e 59 211
e 59 246
e 60 65
e 60 77
e 60 78
e 60 93
e 60 103
e 60 117
e 60 137
e 60 143
e 60 147
e 60 152
e 60 162
e 60 167
e 60 182
e 60 194
e 60 211
e 60 249
e 61 78
e 61 87
e 61 107
e 61 112
e 61 118
e 61 120
e 61 124
e 61 140
e 61 147
e 61 160
e 61 170
e 61 184
e 61 189
e 61 190
e 61 196
e 61 202
e 61 206
e 61 226
e 61 236
e 62 65
e 62 68
e 62 74
e 62 79
e 62 86
e 62 107
e 62 110
e 62 113
e 62 129
e 62 136
e 62 167
e 62 183
e 62 192
e 62 193
e 62 205
e 62 208
e 62 213
e 62 219
e 62 223
e 62 233
e 62 244
e 63 73
e 63 81
e 63 86
e 63 99
e 63 100
e 63 104
e 63 120
e 63 121
e 63 123
e 63 127
e 63 128
e 63 139
e 63 164
e 63 191
e 63 192
e 63 195
e 63 218
e 63 219
e 63 222
e 63 230
e 63 239
e 64 113
e 64 118
e 64 127
e 64 129
e 64 130
e 64 133
e 64 147
e 64 158
e 64 162
e 64 165
e 64 185
e 64 196
e 64 213
e 64 215
e 64 227
e 64 233
e 64 237
e 64 241
e 64 242
e 64 248
e 65 72
e 65 85
e 65 91
e 65 95
e 65 100
e 65 118
e 65 123
e 65 181
e 65 185
e 65 197
e 65 198
e 65 208
e 65 226
e 65 245
e 66 70
e 66 73
e 66 77
e 66 86
e 66 87
e 66 90
e 66 95
e 66 147
e 66 148
e 66 152
e 66 153
e 66 160
e 66 173
e 66 187
e 66 205
e 66 208
e 66 218
e 66 219
e 66 228
e 66 234
e 66 249
e 66 250
e 67 80
e 67 84
e 67 93
e 67 98
e 67 115
e 67 131
e 67 142
e 67 158
e 67 159
e 67 160
e 67 167
e 67 177
e 67 197
e 67 200
e 67 239
e 67 241
e 68 76
e 68 79
e 68 82
e 68 83
e 68 85
e 68 88
e 68 92
e 68 95
e 68 110
e 68 112
e 68 113
e 68 124
e 68 138
e 68 153
e 68 161
e 68 173
e 68 181
e 68 182
e 68 212
e 68 218
e 69 74
e 69 76
e 69 94
e 69 118
e 69 131
e 69 150
e 69 152
e 69 154
e 69 156
e 69 158
e 69 160
e 69 162
e 69 181
e 69 193
e 69 203
e 69 204
e 69 208
e 69 210
e 69 217
e 69 238
e 69 247
e 69 249
e 70 75
e 70 81
e 70 84
e 70 88
e 70 103
e 70 115
e 70 117
e 70 126
e 70 137
e 70 139
e 70 163
e 70 180
e 70 192
e 70 197
e 70 199
e 70 205
e 70 212
e 70 213
e 70 227
e 70 230
e 70 233
e 70 249
e 71 87
e 71 99
e 71 107
e 71 111
e 71 144
e 71 169
e 71 170
e 71 194
e 71 200
e 71 205
e 71 207
e 71 219
e 72 87
e 72 124
e 72 126
e 72 144
e 72 149
e 72 150
e 72 156
e 72 161
e 72 165
e 72 170
e 72 172
e 72 176
e 72 191
e 72 194
e 72 201
e 72 222
e 72 233
e 72 245
e 73 75
e 73 76
e 73 87
e 73 95
e 73 102
e 73 106
e 73 123
e 73 133
e 73 147
e 73 171
e 73 175
e 73 190
e 73 216
e 73 225
e 74 99
e 74 115
e 74 123
e 74 125
e 74 131
e 74 144
e 74 145
e 74 159
e 74 163
e 74 199
e 74 206
e 74 211
e 74 229
e 74 245
e 74 246
e 74 249
e 75 89
e 75 96
e 75 102
e 75 103
e 75 124
e 75 130
e 75 138
e 75 147
e 75 176
e 75 181
e 75 195
e 75 197
e 75 230
e 75 236
e 75 238
e 75 242
e 76 77
e 76 78
e 76 81
e 76 82
e 76 90
e 76 93
e 76 94
e 76 100
e 76 117
e 76 121
e 76 141
e 76 142
e 76 167
e 76 175
e 76 176
e 76 190
e 76 197
e 76 214
e 76 227
e 76 228
e 76 229
e 76 246
e 77 81
e 77 126
e 77 134
e 77 139
e 77 169
e 77 193
e 77 212
e 77 226
e 77 228
e 77 248
e 78 79
e 78 82
e 78 83
e 78 85
e 78 90
e 78 94
e 78 98
e 78 104
e 78 109
e 78 115
e 78 123
e 78 133
e 78 147
e 78 159
e 78 161
e 78 168
e 78 174
e 78 177
e 78 188
e 78 189
e 78 216
e 78 224
e 78 229
e 78 236
e 79 80
e 79 89
e 79 123
e 79 129
e 79 134
e 79 136
e 79 139
e 79 140
e 79 152
e 79 155
e 79 172
e 79 185
e 79 187
e 79 202
e 79 212
e 79 224
e 79 232
e 79 235
e 79 236
e 79 244
e 79 247
e 79 249
e 80 84
e 80 134
e 80 147
e 80 150
e 80 191
e 80 195
e 80 218
e 80 243
e 81 103
e 81 111
e 81 131
e 81 136
e 81 155
e 81 156
e 81 158
e 81 163
e 81 164
e 81 176
e 81 177
e 81 180
e 81 199
e 81 204
e 81 209
e 81 212
e 81 231
e 81 233
e 81 239
e 82 95
e 82 99
e 82 101
e 82 107
e 82 124
e 82 136
e 82 148
e 82 160
e 82 186
e 82 188
e 82 204
e 82 208
e 82 210
e 82 211
e 82 237
e 82 239
e 83 99
e 83 105
e 83 113
e 83 123
e 83 135
e 83 137
e 83 140
e 83 148
e 83 153
e 83 181
e 83 190
e 83 207
e 83 213
e 83 214
e 83 219
e 83 232
e 83 243
e 84 99
e 84 123
e 84 127
e 84 148
e 84 151
e 84 153
e 84 158
e 84 160
e 84 174
e 84 175
e 84 203
e 84 237
e 84 247
e 84 249
e 84 250
e 85 108
e 85 112
e 85 128
e 85 148
e 85 151
e 85 167
e 85 184
e 85 205
e 85 206
e 85 214
e 85 217
e 85 221
e 85 222
e 85 236
e 85 238
e 85 242
e 85 249
e 86 88
e 86 92
e 86 99
e 86 131
e 86 141
e 86 143
e 86 146
e 86 147
e 86 165
e 86 176
e 86 193
e 86 196
e 86 203
e 86 211
e 86 231
e 86 232
e 86 233
e 86 240
e 86 242
e 86 243
e 86 248
e 87 89
e 87 94
e 87 95
e 87 96
e 87 97
e 87 113
e 87 140
e 87 144
e 87 156
e 87 157
e 87 158
e 87 159
e 87 177
e 87 178
e 87 187
e 87 193
e 87 206
e 87 208
e 87 217
e 87 227
e 87 228
e 87 233
e 87 234
e 87 247
e 88 98
e 88 112
e 88 124
e 88 134
e 88 146
e 88 192
e 88 197
e 88 198
e 88 204
e 88 218
e 88 219
e 88 222
e 88 223
e 88 231
e 88 246
e 89 94
e 89 125
e 89 129
e 89 134
e 89 161
e 89 193
e 89 205
e 89 210
e 89 227
e 89 233
e 89 242
e 90 100
e 90 136
e 90 139
e 90 158
e 90 174
e 90 195
e 90 246
e 90 250
e 91 100
e 91 102
e 91 110
e 91 126
e 91 141
e 91 142
e 91 147
e 91 168
e 91 171
e 91 179
e 91 183
e 91 185
e 91 225
e 91 241
e 92 111
e 92 122
e 92 138
e 92 150
e 92 170
e 92 183
e 92 195
e 92 209
e 92 210
e 92 213
e 92 215
e 92 227
e 92 235
e 92 237
e 92 241
e 92 245
e 93 137
e 93 169
e 93 170
e 93 183
e 93 189
e 93 196
e 93 205
e 93 229
e 93 232
e 93 246
e 94 106
e 94 110
e 94 111
e 94 114
e 94 131
e 94 148
e 94 151
e 94 154
e 94 159
e 94 195
e 94 213
e 94 226
e 94 231
e 94 242
e 95 99
e 95 121
e 95 122
e 95 134
e 95 136
e 95 144
e 95 165
e 95 177
e 95 179
e 95 183
e 95 188
e 95 190
e 95 192
e 95 194
e 95 201
e 95 221
e 96 112
e 96 133
e 96 144
e 96 148
e 96 196
e 96 198
e 96 225
e 96 238
e 96 240
e 97 100
e 97 104
e 97 108
e 97 115
e 97 116
e 97 118
e 97 128
e 97 146
e 97 159
e 97 180
e 97 192
e 97 202
e 97 206
e 97 241
e 97 243
e 98 102
e 98 105
e 98 108
e 98 129
e 98 138
e 98 169
e 98 181
e 98 185
e 98 198
e 98 206
e 98 216
e 98 223
e 98 247
e 98 248
e 99 119
e 99 125
e 99 128
e 99 133
e 99 155
e 99 162
e 99 176
e 99 212
e 99 244
e 100 104
e 100 134
e 100 147
e 100 151
e 100 155
e 100 168
e 100 169
e 100 170
e 100 207
e 100 218
e 100 219
e 100 243
e 101 107
e 101 114
e 101 115
e 101 124
e 101 127
e 101 129
e 101 157
e 101 172
e 101 173
e 101 179
e 101 184
e 101 187
e 101 191
e 101 207
e 101 216
e 101 223
e 101 237
e 101 245
e 102 114
e 102 135
e 102 136
e 102 150
e 102 168
e 102 172
e 102 184
e 102 188
e 102 192
e 102 195
e 102 224
e 102 228
e 102 238
e 102 239
e 102 250
e 103 129
e 103 131
e 103 134
e 103 155
e 103 167
e 103 215
e 103 231
e 104 113
e 104 114
e 104 123
e 104 128
e 104 132
e 104 140
e 104 149
e 104 156
e 104 173
e 104 192
e 104 206
e 104 207
e 104 210
e 104 223
e 105 131
e 105 153
e 105 158
e 105 174
e 105 176
e 105 190
e 105 195
e 105 201
e 105 207
e 105 212
e 105 218
e 105 232
e 105 239
e 105 244
e 105 245
e 106 108
e 106 129
e 106 157
e 106 187
e 106 204
e 106 209
e 106 215
e 106 220
e 106 224
e 106 227
e 106 228
e 107 123
e 107 147
e 107 175
e 107 183
e 107 196
e 107 203
e 107 210
e 107 216
e 107 225
e 107 235
e 108 109
e 108 111
e 108 118
e 108 133
e 108 167
e 108 177
e 108 181
e 108 185
e 108 207
e 108 241
e 109 145
e 109 148
e 109 158
e 109 173
e 109 180
e 109 186
e 109 189
e 109 192
e 109 195
e 109 215
e 109 241
e 109 250
e 110 174
e 110 188
e 110 194
e 110 197
e 110 207
e 110 220
e 110 222
e 110 224
e 110 232
e 110 243
e 110 246
e 111 123
e 111 125
e 111 127
e 111 154
e 111 166
e 111 184
e 111 187
e 111 206
e 111 207
e 111 208
e 111 214
e 112 113
e 112 124
e 112 135
e 112 155
e 112 156
e 112 160
e 112 169
e 112 190
e 112 192
e 112 195
e 112 201
e 112 223
e 112 224
e 112 226
e 112 246
e 113 119
e 113 121
e 113 122
e 113 127
e 113 129
e 113 130
e 113 151
e 113 153
e 113 156
e 113 159
e 113 162
e 113 171
e 113 183
e 113 191
e 113 205
e 113 230
e 113 242
e 113 248
e 114 119
e 114 138
e 114 144
e 114 177
e 114 184
e 114 229
e 114 239
e 114 243
e 114 249
e 115 116
e 115 131
e 115 158
e 115 159
e 115 160
e 115 162
e 115 164
e 115 173
e 115 188
e 115 196
e 115 211
e 115 215
e 115 240
e 116 119
e 116 120
e 116 144
e 116 149
e 116 150
e 116 159
e 116 163
e 116 183
e 116 194
e 116 199
e 116 208
e 116 222
e 116 223
e 116 224
e 116 225
e 116 227
e 116 231
e 116 236
e 116 244
e 116 245
e 116 249
e 117 126
e 117 129
e 117 131
e 117 134
e 117 155
e 117 156
e 117 173
e 117 180
e 117 184
e 117 204
e 117 217
e 117 218
e 117 219
e 117 227
e 117 240
e 117 247
e 118 136
e 118 153
e 118 158
e 118 159
e 118 167
e 118 199
e 118 200
e 118 211
e 119 120
e 119 123
e 119 130
e 119 156
e 119 186
e 119 189
e 119 199
e 119 220
e 119 225
e 120 126
e 120 134
e 120 143
e 120 154
e 120 165
e 120 168
e 120 169
e 120 185
e 120 186
e 120 187
e 120 198
e 120 205
e 120 211
e 120 234
e 120 238
e 120 243
e 121 128
e 121 139
e 121 140
e 121 147
e 121 172
e 121 175
e 121 176
e 121 191
e 121 203
e 121 212
e 121 217
e 121 226
e 121 231
e 121 250
e 122 123
e 122 156
e 122 179
e 122 182
e 122 190
e 122 193
e 122 197
e 122 198
e 122 204
e 122 206
e 122 209
e 122 212
e 122 218
e 122 231
e 122 232
e 122 238
e 122 240
e 123 138
e 123 140
e 123 146
e 123 159
e 123 184
e 123 216
e 123 221
e 123 223
e 123 229
e 123 230
e 124 141
e 124 142
e 124 161
e 124 162
e 124 169
e 124 174
e 124 175
e 124 182
e 124 185
e 124 192
e 124 193
e 124 201
e 124 207
e 124 208
e 124 213
e 124 223
e 124 229
e 124 230
e 124 231
e 124 235
e 124 250
e 125 137
e 125 148
e 125 154
e 125 161
e 125 188
e 125 197
e 125 201
e 125 220
e 125 230
e 125 235
e 125 242
e 126 127
e 126 149
e 126 161
e 126 175
e 126 176
e 126 194
e 126 197
e 126 198
e 126 205
e 126 225
e 126 234
e 126 235
e 126 236
e 126 243
e 127 134
e 127 139
e 127 148
e 127 154
e 127 157
e 127 160
e 127 206
e 127 236
e 127 237
e 128 131
e 128 132
e 128 137
e 128 145
e 128 147
e 128 156
e 128 162
e 128 168
e 128 174
e 128 188
e 128 194
e 128 209
e 128 220
e 128 228
e 128 244
e 128 249
e 129 137
e 129 138
e 129 146
e 129 172
e 129 173
e 129 176
e 129 182
e 129 192
e 129 206
e 129 240
e 129 249
e 130 133
e 130 140
e 130 149
e 130 150
e 130 164
e 130 171
e 130 181
e 130 191
e 130 202
e 130 203
e 130 208
e 130 211
e 130 217
e 130 222
e 130 244
e 131 146
e 131 148
e 131 172
e 131 173
e 131 192
e 131 198
e 131 202
e 131 207
e 131 218
e 131 236
e 131 243
e 131 248
e 132 134
e 132 135
e 132 161
e 132 170
e 132 186
e 132 189
e 132 197
e 132 203
e 132 218
e 132 223
e 132 236
e 132 239
e 133 138
e 133 140
e 133 141
e 133 157
e 133 162
e 133 166
e 133 179
e 133 214
e 133 221
e 133 222
e 133 242
e 133 249
e 134 145
e 134 147
e 134 150
e 134 153
e 134 161
e 134 173
e 134 187
e 134 198
e 134 203
e 134 207
e 134 233
e 134 242
e 134 249
e 134 250
e 135 138
e 135 143
e 135 147
e 135 155
e 135 160
e 135 162
e 135 168
e 135 169
e 135 175
e 135 180
e 135 194
e 135 199
e 135 227
e 135 229
e 135 237
e 136 144
e 136 146
e 136 151
e 136 166
e 136 187
e 136 197
e 136 200
e 136 206
e 136 211
e 136 226
e 136 227
e 136 229
e 136 233
e 136 239
e 136 242
e 137 175
e 137 189
e 137 191
e 137 198
e 137 205
e 137 209
e 137 229
e 138 164
e 138 183
e 138 209
e 138 215
e 138 218
e 138 221
e 138 228
e 138 244
e 138 248
e 139 145
e 139 158
e 139 177
e 139 183
e 139 187
e 139 190
e 139 193
e 139 195
e 139 200
e 139 202
e 139 208
e 139 216
e 139 231
e 139 234
e 139 241
e 139 246
e 140 146
e 140 159
e 140 160
e 140 162
e 140 164
e 140 194
e 140 199
e 140 202
e 140 223
e 140 224
e 140 237
e 141 158
e 141 180
e 141 183
e 141 206
e 141 210
e 141 214
e 141 219
e 141 221
e 141 228
e 141 237
e 141 243
e 142 146
e 142 148
e 142 167
e 142 169
e 142 174
e 142 177
e 142 184
e 142 198
e 142 203
e 142 212
e 142 224
e 143 149
e 143 174
e 143 185
e 143 190
e 143 193
e 143 195
e 143 197
e 143 210
e 143 233
e 143 240
e 143 241
e 144 145
e 144 150
e 144 194
e 144 204
e 144 207
e 144 209
e 144 232
e 144 242
e 144 244
e 144 247
e 144 248
e 145 146
e 145 153
e 145 155
e 145 172
e 145 177
e 145 197
e 145 218
e 145 232
e 145 236
e 145 243
e 146 148
e 146 150
e 146 158
e 146 163
e 146 165
e 146 186
e 146 189
e 146 196
e 146 205
e 146 208
e 146 213
e 146 240
e 146 241
e 146 242
e 147 155
e 147 158
e 147 171
e 147 197
e 147 202
e 147 209
e 147 228
e 148 176
e 148 192
e 148 206
e 148 223
e 148 232
e 148 244
e 149 157
e 149 162
e 149 164
e 149 168
e 149 183
e 149 195
e 149 204
e 149 211
e 149 212
e 149 213
e 149 218
e 149 219
e 149 232
e 149 246
e 149 250
e 150 155
e 150 156
e 150 182
e 150 191
e 150 202
e 150 205
e 150 213
e 150 231
e 150 235
e 151 168
e 151 176
e 151 195
e 151 197
e 151 204
e 151 225
e 151 240
e 151 247
e 151 250
e 152 153
e 152 158
e 152 172
e 152 185
e 152 204
e 152 226
e 152 245
e 153 158
e 153 176
e 153 180
e 153 185
e 153 193
e 153 196
e 153 231
e 153 242
e 154 159
e 154 160
e 154 161
e 154 184
e 154 215
e 154 221
e 154 246
e 155 170
e 155 171
e 155 177
e 155 203
e 155 220
e 155 241
e 155 243
e 155 249
e 156 170
e 156 180
e 156 182
e 156 193
e 156 202
e 156 212
e 156 214
e 156 232
e 156 244
e 157 162
e 157 169
e 157 173
e 157 176
e 157 177
e 157 178
e 157 180
e 157 183
e 157 210
e 157 223
e 157 228
e 157 231
e 157 236
e 157 237
e 157 242
e 158 172
e 158 233
e 158 247
e 159 162
e 159 163
e 159 186
e 159 190
e 159 218
e 159 233
e 159 235
e 159 237
e 159 241
e 160 161
e 160 164
e 160 166
e 160 172
e 160 178
e 160 179
e 160 186
e 160 198
e 160 240
e 161 170
e 161 179
e 161 197
e 161 202
e 161 210
e 161 235
e 161 240
e 161 247
e 162 163
e 162 165
e 162 170
e 162 184
e 162 187
e 162 206
e 162 208
e 162 211
e 162 230
e 163 167
e 163 176
e 163 189
e 163 210
e 163 225
e 163 227
e 163 229
e 163 239
e 164 171
e 164 182
e 164 193
e 164 214
e 164 217
e 164 232
e 165 174
e 165 184
e 165 217
e 165 233
e 165 235
e 165 246
e 166 177
e 166 179
e 166 189
e 166 197
e 166 215
e 166 229
e 166 233
e 166 244
e 166 245
e 167 172
e 167 203
e 167 207
e 167 213
e 167 217
e 167 226
e 167 245
e 167 246
e 168 194
e 168 205
e 168 209
e 168 221
e 168 232
e 168 241
e 168 242
e 168 244
e 168 247
e 169 188
e 169 208
e 169 219
e 169 229
e 170 178
e 170 179
e 170 188
e 170 194
e 170 205
e 170 209
e 170 212
e 170 225
e 170 235
e 170 248
e 171 182
e 171 209
e 171 212
e 171 224
e 171 234
e 172 182
e 172 207
e 172 219
e 172 238
e 172 240
e 172 242
e 173 176
e 173 184
e 173 210
e 173 219
e 173 237
e 173 238
e 173 247
e 174 191
e 174 196
e 174 218
e 174 225
e 174 229
e 174 232
e 174 235
e 175 177
e 175 180
e 175 190
e 175 206
e 175 217
e 175 234
e 175 240
e 176 182
e 176 202
e 176 220
e 176 221
e 176 231
e 176 238
e 176 241
e 177 189
e 177 196
e 177 208
e 177 217
e 177 224
e 177 242
e 178 180
e 178 181
e 178 182
e 178 183
e 178 189
e 178 200
e 178 205
e 178 206
e 178 214
e 178 216
e 178 217
e 178 220
e 178 224
e 178 238
e 178 248
e 179 183
e 179 188
e 179 190
e 179 195
e 180 217
e 180 220
e 180 231
e 180 237
e 180 242
e 181 182
e 181 188
e 181 198
e 181 200
e 181 212
e 181 215
e 181 217
e 181 220
e 181 222
e 181 232
e 181 235
e 181 243
e 181 249
e 181 250
e 182 186
e 182 189
e 182 190
e 182 198
e 182 201
e 182 213
e 182 217
e 182 224
e 182 232
e 182 233
e 182 245
e 183 187
e 183 188
e 183 205
e 183 224
e 183 229
e 183 232
e 183 233
e 183 238
e 184 204
e 184 207
e 184 214
e 184 217
e 184 225
e 184 226
e 184 245
e 184 246
e 185 197
e 185 202
e 185 204
e 185 211
e 185 215
e 185 223
e 186 189
e 186 194
e 186 202
e 186 205
e 186 216
e 186 227
e 186 228
e 186 242
e 187 215
e 187 221
e 187 233
e 187 238
e 187 247
e 188 209
e 188 210
e 188 213
e 188 217
e 188 218
e 188 232
e 188 239
e 188 248
e 189 190
e 189 208
e 189 223
e 189 226
e 189 232
e 189 233
e 189 236
e 189 248
e 190 201
e 190 225
e 190 247
e 191 195
e 191 209
e 191 210
e 191 219
e 191 221
e 191 247
e 192 195
e 192 218
e 192 220
e 192 221
e 192 241
e 193 195
e 193 198
e 193 215
e 193 239
e 194 208
e 194 222
e 194 228
e 194 239
e 194 244
e 194 249
e 195 230
e 196 197
e 196 228
e 196 230
e 196 239
e 196 241
e 197 201
e 197 204
e 197 219
e 197 223
e 197 228
e 197 229
e 198 203
e 198 220
e 198 222
e 198 226
e 198 231
e 198 232
e 198 244
e 199 220
e 200 210
e 200 211
e 200 218
e 200 239
e 201 209
e 201 211
e 201 212
e 201 245
e 202 212
e 202 228
e 202 234
e 202 236
e 202 240
e 202 241
e 203 208
e 203 223
e 203 232
e 203 239
e 204 209
e 204 210
e 204 232
e 204 239
e 205 206
e 205 222
e 205 223
e 205 224
e 205 226
e 205 233
e 205 246
e 205 249
e 206 229
e 206 244
e 206 245
e 207 216
e 207 224
e 207 232
e 207 243
e 207 250
e 208 210
e 208 238
e 208 239
e 208 247
e 208 250
e 209 223
e 209 239
e 209 240
e 209 243
e 210 211
e 210 220
e 210 221
e 210 222
e 210 226
e 210 231
e 210 244
e 210 245
e 211 234
e 211 247
e 212 232
e 212 239
e 212 248
e 213 215
e 213 234
e 213 242
e 213 247
e 214 219
e 214 223
e 214 227
e 214 229
e 214 232
e 214 233
e 214 240
e 214 241
e 214 242
e 215 218
e 215 220
e 215 224
e 215 238
e 216 217
e 216 231
e 216 245
e 216 249
e 217 232
e 217 235
e 217 244
e 217 247
e 218 224
e 218 230
e 218 242
e 218 244
e 218 246
e 219 225
e 219 245
e 220 234
e 220 239
e 221 222
e 221 227
e 221 233
e 221 236
e 221 238
e 221 243
e 222 225
e 222 236
e 222 240
e 222 241
e 223 247
e 223 249
e 224 243
e 225 238
e 225 246
e 226 235
e 226 244
e 227 235
e 227 241
e 227 243
e 227 247
e 227 250
e 228 236
e 229 232
e 229 235
e 230 239
e 230 241
e 231 237
e 231 239
e 232 233
e 232 240
e 232 248
e 232 249
e 234 238
e 234 239
e 234 250
e 235 242
e 236 237
e 237 238
e 237 247
e 238 240
e 238 244
e 239 245
e 240 244
e 240 245
e 241 244
e 244 246
e 244 247
